letting n_nurses=25
letting n_days=7
letting n_shift_types=4
letting max_covers=16
letting t_covers=87
letting covers=[2,12,0,0,3,14,0,0,16,3,0,0,12,2,0,0,3,0,13,0,1,1,0,0,2,3,0,0]
letting prefes=[1,1,1,1,3,1,1,2,1,1,1,1,1,1,2,4,1,1,1,1,1,1,2,4,1,1,1,1,3,1,1,1,1,1,1,1,1,4,1,1,2,4,1,1,1,4,1,1,2,4,1,1,1,4,1,1,3,1,1,1,1,1,1,1,1,4,1,1,2,1,1,1,1,4,1,1,2,1,1,1,1,4,1,1,3,1,1,1,1,1,1,1,1,4,1,1,2,1,1,1,1,4,1,1,2,1,1,1,1,4,1,1,3,1,1,1,1,1,1,2,1,1,1,1,2,1,1,1,1,1,1,1,2,1,1,1,1,1,1,1,1,1,1,1,1,1,1,1,1,4,1,1,1,4,1,1,1,4,1,1,1,4,1,1,1,4,1,1,3,3,3,3,1,1,1,2,1,4,4,1,1,1,2,4,1,4,4,1,1,1,2,4,1,4,4,1,3,1,1,1,3,1,2,1,4,4,1,4,1,1,1,1,4,4,1,4,1,1,1,1,4,4,1,4,3,3,3,3,1,3,1,1,4,4,1,4,1,1,1,1,4,4,1,4,1,1,1,1,4,4,1,4,3,1,1,1,1,3,1,1,4,4,1,4,1,1,1,1,4,4,1,4,1,1,1,1,4,4,1,4,3,1,1,1,1,1,2,2,1,4,1,1,1,1,1,1,1,4,1,1,1,1,1,1,1,4,1,1,3,1,1,1,3,1,2,1,4,4,4,4,1,4,2,1,4,4,4,4,1,4,2,1,4,4,4,4,1,2,2,2,1,1,1,1,1,1,1,1,1,1,1,4,1,1,1,1,1,1,1,4,1,1,1,1,3,2,2,2,3,1,1,1,4,4,4,4,1,1,1,1,4,4,4,4,1,1,1,1,4,4,4,4,3,1,1,1,1,1,1,1,1,4,1,1,1,4,2,1,1,4,1,1,1,4,2,1,1,4,1,1,1,1,1,1,3,1,1,1,1,4,1,1,1,4,1,1,1,4,1,1,1,4,1,1,1,4,1,1,3,1,1,1,1,1,1,1,1,1,1,1,1,1,1,1,1,1,1,1,1,1,1,1,1,1,1,1,3,1,1,1,1,1,2,1,1,1,1,1,1,1,1,4,1,1,1,1,1,1,1,4,1,1,1,1,1,1,1,1,1,3,1,1,1,4,1,1,1,1,1,4,1,4,1,1,1,1,1,4,1,4,1,1,3,1,1,1,1,1,1,1,1,4,1,1,1,1,1,1,1,4,1,1,1,1,1,1,1,4,1,1,3,1,1,1,1,3,1,1,1,4,1,1,1,1,1,1,1,4,1,1,1,1,1,1,1,4,1,1,3,1,1,1,1,1,1,1,1,4,4,1,1,1,1,1,1,4,4,1,1,1,1,1,1,4,4,1,3,1,1,1,1,1,1,2,1,4,1,1,2,1,2,1,1,4,1,1,2,1,2,1,1,4,1,1,3,1,1,1,1,3,1,1,1,4,4,1,1,1,1,1,1,4,4,1,1,1,1,1,1,4,4,1,3,2,2,2,1,1,2,1,1,4,1,1,1,1,1,1,1,4,1,1,1,1,1,1,1,4,1,1]
letting ub =  199
